words_hard_train/1640.qaiger
aag 177 24 0 1 153
2
4
8
16
30
38
52
60
76
98
108
116
144
154
162
196
212
220
248
264
272
300
302
326
355
6 2 4
10 4 8
12 5 9
14 11 13
18 15 17
20 14 16
22 19 21
24 7 23
26 6 22
28 25 27
32 28 30
34 3 5
36 35 7
40 37 39
42 32 41
44 39 31
46 37 29
48 45 47
50 27 21
54 13 52
56 12 53
58 55 57
62 59 61
64 58 60
66 63 65
68 50 67
70 51 66
72 69 71
74 48 73
78 45 76
80 75 79
82 43 81
84 47 72
86 44 77
88 79 87
90 85 89
92 83 91
94 46 73
96 93 95
100 78 98
102 79 99
104 101 103
106 71 65
110 57 108
112 56 109
114 111 113
118 115 117
120 114 116
122 119 121
124 106 123
126 107 122
128 125 127
130 95 128
132 94 129
134 131 133
136 105 135
138 96 137
140 104 134
142 139 141
146 102 145
148 103 144
150 147 149
152 127 121
156 113 154
158 112 155
160 157 159
164 161 163
166 160 162
168 165 167
170 152 169
172 153 168
174 171 173
176 133 174
178 132 175
180 177 179
182 150 181
184 143 183
186 151 180
188 185 187
190 86 99
192 190 145
194 149 193
198 194 197
200 193 196
202 192 197
204 201 203
206 195 205
208 199 207
210 173 167
214 159 212
216 158 213
218 215 217
222 219 221
224 218 220
226 223 225
228 210 227
230 211 226
232 229 231
234 179 232
236 178 233
238 235 237
240 208 239
242 189 241
244 209 238
246 243 245
250 203 248
252 202 249
254 251 253
256 207 254
258 206 255
260 257 259
262 231 225
266 217 264
268 216 265
270 267 269
274 271 273
276 270 272
278 275 277
280 262 279
282 263 278
284 281 283
286 237 284
288 236 285
290 287 289
292 260 291
294 247 293
296 261 290
298 295 297
304 300 302
306 301 303
308 305 307
310 308 269
312 309 268
314 311 313
316 283 277
318 315 317
320 314 316
322 319 321
324 299 323
328 252 327
330 253 326
332 329 331
334 332 259
336 333 258
338 335 337
340 339 288
342 325 341
344 298 322
346 338 289
348 345 347
350 342 349
352 324 340
354 351 353
i0 2 y2[0]
i1 1 x1[0]
i2 1 x1[1]
i3 2 y2[1]
i4 2 y1[1]
i5 2 y1[0]
i6 1 x1[2]
i7 2 y2[2]
i8 2 y1[2]
i9 2 y1[3]
i10 1 x1[3]
i11 2 y2[3]
i12 2 y1[4]
i13 1 x1[4]
i14 2 y2[4]
i15 2 y1[5]
i16 1 x1[5]
i17 2 y2[5]
i18 2 y1[6]
i19 1 x1[6]
i20 2 y2[6]
i21 2 y2[7]
i22 1 x1[7]
i23 2 y1[7]
o0 bv[0]
c
simplified
  <
    subtract
      unary minus
        2 y1
      140
    subtract
      2 y2
      1 x1
