words_hard_train/1640.qaiger.qdimacs
p cnf 177 460
a 2 4 132 106 77 54 151 26 0
e 1 3 5 6 7 8 9 10 11 12 13 14 15 16 17 18 19 20 21 22 23 24 25 27 28 29 30 31 32 33 34 35 36 37 38 39 40 41 42 43 44 45 46 47 48 49 50 51 52 53 55 56 57 58 59 60 61 62 63 64 65 66 67 68 69 70 71 72 73 74 75 76 78 79 80 81 82 83 84 85 86 87 88 89 90 91 92 93 94 95 96 97 98 99 100 101 102 103 104 105 107 108 109 110 111 112 113 114 115 116 117 118 119 120 121 122 123 124 125 126 127 128 129 130 131 133 134 135 136 137 138 139 140 141 142 143 144 145 146 147 148 149 150 152 153 154 155 156 157 158 159 160 161 162 163 164 165 166 167 168 169 170 171 172 173 174 175 176 177 0
-1 -2 3 0
1 -3 0
2 -3 0
-2 -4 5 0
2 -5 0
4 -5 0
2 4 6 0
-2 -6 0
-4 -6 0
5 6 7 0
-5 -7 0
-6 -7 0
7 8 9 0
-7 -9 0
-8 -9 0
-7 -8 10 0
7 -10 0
8 -10 0
9 10 11 0
-9 -11 0
-10 -11 0
3 11 12 0
-3 -12 0
-11 -12 0
-3 -11 13 0
3 -13 0
11 -13 0
12 13 14 0
-12 -14 0
-13 -14 0
-14 -15 16 0
14 -16 0
15 -16 0
1 2 17 0
-1 -17 0
-2 -17 0
17 3 18 0
-17 -18 0
-3 -18 0
18 19 20 0
-18 -20 0
-19 -20 0
-16 20 21 0
16 -21 0
-20 -21 0
19 15 22 0
-19 -22 0
-15 -22 0
18 14 23 0
-18 -23 0
-14 -23 0
22 23 24 0
-22 -24 0
-23 -24 0
13 10 25 0
-13 -25 0
-10 -25 0
6 -26 27 0
-6 -27 0
26 -27 0
-6 26 28 0
6 -28 0
-26 -28 0
27 28 29 0
-27 -29 0
-28 -29 0
29 30 31 0
-29 -31 0
-30 -31 0
-29 -30 32 0
29 -32 0
30 -32 0
31 32 33 0
-31 -33 0
-32 -33 0
-25 33 34 0
25 -34 0
-33 -34 0
25 -33 35 0
-25 -35 0
33 -35 0
34 35 36 0
-34 -36 0
-35 -36 0
-24 36 37 0
24 -37 0
-36 -37 0
22 -38 39 0
-22 -39 0
38 -39 0
37 39 40 0
-37 -40 0
-39 -40 0
21 40 41 0
-21 -41 0
-40 -41 0
23 -36 42 0
-23 -42 0
36 -42 0
-22 38 43 0
22 -43 0
-38 -43 0
39 43 44 0
-39 -44 0
-43 -44 0
42 44 45 0
-42 -45 0
-44 -45 0
41 45 46 0
-41 -46 0
-45 -46 0
-23 36 47 0
23 -47 0
-36 -47 0
46 47 48 0
-46 -48 0
-47 -48 0
-39 -49 50 0
39 -50 0
49 -50 0
39 49 51 0
-39 -51 0
-49 -51 0
50 51 52 0
-50 -52 0
-51 -52 0
35 32 53 0
-35 -53 0
-32 -53 0
28 -54 55 0
-28 -55 0
54 -55 0
-28 54 56 0
28 -56 0
-54 -56 0
55 56 57 0
-55 -57 0
-56 -57 0
57 58 59 0
-57 -59 0
-58 -59 0
-57 -58 60 0
57 -60 0
58 -60 0
59 60 61 0
-59 -61 0
-60 -61 0
-53 61 62 0
53 -62 0
-61 -62 0
53 -61 63 0
-53 -63 0
61 -63 0
62 63 64 0
-62 -64 0
-63 -64 0
47 -64 65 0
-47 -65 0
64 -65 0
-47 64 66 0
47 -66 0
-64 -66 0
65 66 67 0
-65 -67 0
-66 -67 0
52 67 68 0
-52 -68 0
-67 -68 0
-48 68 69 0
48 -69 0
-68 -69 0
-52 -67 70 0
52 -70 0
67 -70 0
69 70 71 0
-69 -71 0
-70 -71 0
-51 72 73 0
51 -73 0
-72 -73 0
51 -72 74 0
-51 -74 0
72 -74 0
73 74 75 0
-73 -75 0
-74 -75 0
63 60 76 0
-63 -76 0
-60 -76 0
56 -77 78 0
-56 -78 0
77 -78 0
-56 77 79 0
56 -79 0
-77 -79 0
78 79 80 0
-78 -80 0
-79 -80 0
80 81 82 0
-80 -82 0
-81 -82 0
-80 -81 83 0
80 -83 0
81 -83 0
82 83 84 0
-82 -84 0
-83 -84 0
-76 84 85 0
76 -85 0
-84 -85 0
76 -84 86 0
-76 -86 0
84 -86 0
85 86 87 0
-85 -87 0
-86 -87 0
66 -87 88 0
-66 -88 0
87 -88 0
-66 87 89 0
66 -89 0
-87 -89 0
88 89 90 0
-88 -90 0
-89 -90 0
-75 90 91 0
75 -91 0
-90 -91 0
71 91 92 0
-71 -92 0
-91 -92 0
75 -90 93 0
-75 -93 0
90 -93 0
92 93 94 0
-92 -94 0
-93 -94 0
-43 49 95 0
43 -95 0
-49 -95 0
-95 72 96 0
95 -96 0
-72 -96 0
74 96 97 0
-74 -97 0
-96 -97 0
-97 98 99 0
97 -99 0
-98 -99 0
96 -98 100 0
-96 -100 0
98 -100 0
-96 98 101 0
96 -101 0
-98 -101 0
100 101 102 0
-100 -102 0
-101 -102 0
97 102 103 0
-97 -103 0
-102 -103 0
99 103 104 0
-99 -104 0
-103 -104 0
86 83 105 0
-86 -105 0
-83 -105 0
79 -106 107 0
-79 -107 0
106 -107 0
-79 106 108 0
79 -108 0
-106 -108 0
107 108 109 0
-107 -109 0
-108 -109 0
109 110 111 0
-109 -111 0
-110 -111 0
-109 -110 112 0
109 -112 0
110 -112 0
111 112 113 0
-111 -113 0
-112 -113 0
-105 113 114 0
105 -114 0
-113 -114 0
105 -113 115 0
-105 -115 0
113 -115 0
114 115 116 0
-114 -116 0
-115 -116 0
89 -116 117 0
-89 -117 0
116 -117 0
-89 116 118 0
89 -118 0
-116 -118 0
117 118 119 0
-117 -119 0
-118 -119 0
-104 119 120 0
104 -120 0
-119 -120 0
94 120 121 0
-94 -121 0
-120 -121 0
104 -119 122 0
-104 -122 0
119 -122 0
121 122 123 0
-121 -123 0
-122 -123 0
101 -124 125 0
-101 -125 0
124 -125 0
-101 124 126 0
101 -126 0
-124 -126 0
125 126 127 0
-125 -127 0
-126 -127 0
103 -127 128 0
-103 -128 0
127 -128 0
-103 127 129 0
103 -129 0
-127 -129 0
128 129 130 0
-128 -130 0
-129 -130 0
115 112 131 0
-115 -131 0
-112 -131 0
108 -132 133 0
-108 -133 0
132 -133 0
-108 132 134 0
108 -134 0
-132 -134 0
133 134 135 0
-133 -135 0
-134 -135 0
135 136 137 0
-135 -137 0
-136 -137 0
-135 -136 138 0
135 -138 0
136 -138 0
137 138 139 0
-137 -139 0
-138 -139 0
-131 139 140 0
131 -140 0
-139 -140 0
131 -139 141 0
-131 -141 0
139 -141 0
140 141 142 0
-140 -142 0
-141 -142 0
118 -142 143 0
-118 -143 0
142 -143 0
-118 142 144 0
118 -144 0
-142 -144 0
143 144 145 0
-143 -145 0
-144 -145 0
-130 145 146 0
130 -146 0
-145 -146 0
123 146 147 0
-123 -147 0
-146 -147 0
130 -145 148 0
-130 -148 0
145 -148 0
147 148 149 0
-147 -149 0
-148 -149 0
-150 -151 152 0
150 -152 0
151 -152 0
150 151 153 0
-150 -153 0
-151 -153 0
152 153 154 0
-152 -154 0
-153 -154 0
-154 134 155 0
154 -155 0
-134 -155 0
154 -134 156 0
-154 -156 0
134 -156 0
155 156 157 0
-155 -157 0
-156 -157 0
141 138 158 0
-141 -158 0
-138 -158 0
157 158 159 0
-157 -159 0
-158 -159 0
-157 -158 160 0
157 -160 0
158 -160 0
159 160 161 0
-159 -161 0
-160 -161 0
149 161 162 0
-149 -162 0
-161 -162 0
-126 163 164 0
126 -164 0
-163 -164 0
126 -163 165 0
-126 -165 0
163 -165 0
164 165 166 0
-164 -166 0
-165 -166 0
-166 129 167 0
166 -167 0
-129 -167 0
166 -129 168 0
-166 -168 0
129 -168 0
167 168 169 0
-167 -169 0
-168 -169 0
169 -144 170 0
-169 -170 0
144 -170 0
162 170 171 0
-162 -171 0
-170 -171 0
-149 -161 172 0
149 -172 0
161 -172 0
-169 144 173 0
169 -173 0
-144 -173 0
172 173 174 0
-172 -174 0
-173 -174 0
-171 174 175 0
171 -175 0
-174 -175 0
-162 -170 176 0
162 -176 0
170 -176 0
175 176 177 0
-175 -177 0
-176 -177 0
-177 0
